; Copyright (c) 2026 The RIINA Authors. All rights reserved.
; Copyright (c) 2026 The RIINA Authors.
; Auto-generated from 02_FORMAL/coq/domains/MeltdownDefense.v (30 assertions)
; Generated by scripts/generate-full-stack.py
; Module: MeltdownDefense

(set-logic ALL)
(set-option :produce-models true)

; MeltdownVariant (matches Coq: Inductive MeltdownVariant)
(declare-datatypes ((MeltdownVariant 0)) (((Meltdown_US) (Meltdown_P) (Meltdown_RW) (Meltdown_PK) (KPTI) (L1TF_Flush) (TSX_Disable))))

; MeltdownDefenseConfig (matches Coq: Record MeltdownDefenseConfig)
(declare-datatypes ((MeltdownDefenseConfig 0))
  (((mk-meltdown_defense_config (mdc_us_protected Bool) (mdc_p_protected Bool) (mdc_rw_protected Bool) (mdc_pk_protected Bool) (mdc_br_protected Bool) (mdc_kpti_enabled Bool) (mdc_l1tf_mitigated Bool)))))

; all_meltdown_protected (matches Coq: Definition all_meltdown_protected)
(define-fun all_meltdown_protected ((c MeltdownDefenseConfig)) Bool
  (and (mdc_us_protected c) (mdc_p_protected c) (mdc_rw_protected c) (mdc_pk_protected c) (mdc_br_protected c)))

; meltdown_mitigations_enabled (matches Coq: Definition meltdown_mitigations_enabled)
(define-fun meltdown_mitigations_enabled ((c MeltdownDefenseConfig)) Bool
  (and (mdc_kpti_enabled c) (mdc_l1tf_mitigated c)))

; meltdown_fully_protected (matches Coq: Definition meltdown_fully_protected)
(define-fun meltdown_fully_protected ((c MeltdownDefenseConfig)) Bool
  (and (all_meltdown_protected c) (meltdown_mitigations_enabled c)))

; riina_meltdown_config (matches Coq: Definition riina_meltdown_config)
(define-fun riina_meltdown_config () MeltdownDefenseConfig
  (mk-meltdown_defense_config true true true true true true true))

; andb_true_iff (matches Coq: Lemma andb_true_iff)
(assert (= true true)) ; andb_true_iff [untranslatable]

; MELTDOWN_001_all_variants (matches Coq: Theorem MELTDOWN_001_all_variants)
(assert (= (all_meltdown_protected riina_meltdown_config) true)) ; MELTDOWN_001_all_variants

; MELTDOWN_002_mitigations (matches Coq: Theorem MELTDOWN_002_mitigations)
(assert (= (meltdown_mitigations_enabled riina_meltdown_config) true)) ; MELTDOWN_002_mitigations

; MELTDOWN_003_fully_protected (matches Coq: Theorem MELTDOWN_003_fully_protected)
(assert (= (meltdown_fully_protected riina_meltdown_config) true)) ; MELTDOWN_003_fully_protected

; MELTDOWN_004_us_required (matches Coq: Theorem MELTDOWN_004_us_required)
(assert (forall ((c MeltdownDefenseConfig)) (=> (= (all_meltdown_protected c) true) (= (mdc_us_protected c) true)))) ; MELTDOWN_004_us_required

; MELTDOWN_005_p_required (matches Coq: Theorem MELTDOWN_005_p_required)
(assert (forall ((c MeltdownDefenseConfig)) (=> (= (all_meltdown_protected c) true) (= (mdc_p_protected c) true)))) ; MELTDOWN_005_p_required

; MELTDOWN_006_kpti_required (matches Coq: Theorem MELTDOWN_006_kpti_required)
(assert (forall ((c MeltdownDefenseConfig)) (=> (= (meltdown_mitigations_enabled c) true) (= (mdc_kpti_enabled c) true)))) ; MELTDOWN_006_kpti_required

; MELTDOWN_007_l1tf_required (matches Coq: Theorem MELTDOWN_007_l1tf_required)
(assert (forall ((c MeltdownDefenseConfig)) (=> (= (meltdown_mitigations_enabled c) true) (= (mdc_l1tf_mitigated c) true)))) ; MELTDOWN_007_l1tf_required

; MELTDOWN_008_full_implies_variants (matches Coq: Theorem MELTDOWN_008_full_implies_variants)
(assert (forall ((c MeltdownDefenseConfig)) (=> (= (meltdown_fully_protected c) true) (= (all_meltdown_protected c) true)))) ; MELTDOWN_008_full_implies_variants

; MELTDOWN_009_full_implies_mitigations (matches Coq: Theorem MELTDOWN_009_full_implies_mitigations)
(assert (forall ((c MeltdownDefenseConfig)) (=> (= (meltdown_fully_protected c) true) (= (meltdown_mitigations_enabled c) true)))) ; MELTDOWN_009_full_implies_mitigations

; MELTDOWN_010_riina_kpti (matches Coq: Theorem MELTDOWN_010_riina_kpti)
(assert (= (mdc_kpti_enabled riina_meltdown_config) true)) ; MELTDOWN_010_riina_kpti

; MELTDOWN_011_riina_l1tf (matches Coq: Theorem MELTDOWN_011_riina_l1tf)
(assert (= (mdc_l1tf_mitigated riina_meltdown_config) true)) ; MELTDOWN_011_riina_l1tf

; MELTDOWN_012_full_implies_kpti (matches Coq: Theorem MELTDOWN_012_full_implies_kpti)
(assert (forall ((c MeltdownDefenseConfig)) (=> (= (meltdown_fully_protected c) true) (= (mdc_kpti_enabled c) true)))) ; MELTDOWN_012_full_implies_kpti

; MELTDOWN_013_full_implies_us (matches Coq: Theorem MELTDOWN_013_full_implies_us)
(assert (forall ((c MeltdownDefenseConfig)) (=> (= (meltdown_fully_protected c) true) (= (mdc_us_protected c) true)))) ; MELTDOWN_013_full_implies_us

; MELTDOWN_014_riina_us (matches Coq: Theorem MELTDOWN_014_riina_us)
(assert (= (mdc_us_protected riina_meltdown_config) true)) ; MELTDOWN_014_riina_us

; MELTDOWN_015_complete_defense (matches Coq: Theorem MELTDOWN_015_complete_defense)
(assert (forall ((c MeltdownDefenseConfig)) (=> (= (meltdown_fully_protected c) true) (and (= (mdc_us_protected c) true) (= (mdc_kpti_enabled c) true) (= (mdc_l1tf_mitigated c) true))))) ; MELTDOWN_015_complete_defense

; MELTDOWN_016_rw_required (matches Coq: Theorem MELTDOWN_016_rw_required)
(assert (forall ((c MeltdownDefenseConfig)) (=> (= (all_meltdown_protected c) true) (= (mdc_rw_protected c) true)))) ; MELTDOWN_016_rw_required

; MELTDOWN_017_pk_required (matches Coq: Theorem MELTDOWN_017_pk_required)
(assert (forall ((c MeltdownDefenseConfig)) (=> (= (all_meltdown_protected c) true) (= (mdc_pk_protected c) true)))) ; MELTDOWN_017_pk_required

; MELTDOWN_018_br_required (matches Coq: Theorem MELTDOWN_018_br_required)
(assert (forall ((c MeltdownDefenseConfig)) (=> (= (all_meltdown_protected c) true) (= (mdc_br_protected c) true)))) ; MELTDOWN_018_br_required

; MELTDOWN_019_full_implies_l1tf (matches Coq: Theorem MELTDOWN_019_full_implies_l1tf)
(assert (forall ((c MeltdownDefenseConfig)) (=> (= (meltdown_fully_protected c) true) (= (mdc_l1tf_mitigated c) true)))) ; MELTDOWN_019_full_implies_l1tf

; MELTDOWN_020_full_implies_p (matches Coq: Theorem MELTDOWN_020_full_implies_p)
(assert (forall ((c MeltdownDefenseConfig)) (=> (= (meltdown_fully_protected c) true) (= (mdc_p_protected c) true)))) ; MELTDOWN_020_full_implies_p

; MELTDOWN_021_full_implies_rw (matches Coq: Theorem MELTDOWN_021_full_implies_rw)
(assert (forall ((c MeltdownDefenseConfig)) (=> (= (meltdown_fully_protected c) true) (= (mdc_rw_protected c) true)))) ; MELTDOWN_021_full_implies_rw

; MELTDOWN_022_full_implies_pk (matches Coq: Theorem MELTDOWN_022_full_implies_pk)
(assert (forall ((c MeltdownDefenseConfig)) (=> (= (meltdown_fully_protected c) true) (= (mdc_pk_protected c) true)))) ; MELTDOWN_022_full_implies_pk

; MELTDOWN_023_full_implies_br (matches Coq: Theorem MELTDOWN_023_full_implies_br)
(assert (forall ((c MeltdownDefenseConfig)) (=> (= (meltdown_fully_protected c) true) (= (mdc_br_protected c) true)))) ; MELTDOWN_023_full_implies_br

; MELTDOWN_024_riina_p (matches Coq: Theorem MELTDOWN_024_riina_p)
(assert (= (mdc_p_protected riina_meltdown_config) true)) ; MELTDOWN_024_riina_p

; MELTDOWN_025_riina_rw (matches Coq: Theorem MELTDOWN_025_riina_rw)
(assert (= (mdc_rw_protected riina_meltdown_config) true)) ; MELTDOWN_025_riina_rw

; MELTDOWN_026_riina_pk (matches Coq: Theorem MELTDOWN_026_riina_pk)
(assert (= (mdc_pk_protected riina_meltdown_config) true)) ; MELTDOWN_026_riina_pk

; MELTDOWN_027_riina_br (matches Coq: Theorem MELTDOWN_027_riina_br)
(assert (= (mdc_br_protected riina_meltdown_config) true)) ; MELTDOWN_027_riina_br

; MELTDOWN_028_variant_mitigation_composition (matches Coq: Theorem MELTDOWN_028_variant_mitigation_composition)
(assert (forall ((c MeltdownDefenseConfig)) (=> (= (all_meltdown_protected c) true) (=> (= (meltdown_mitigations_enabled c) true) (= (meltdown_fully_protected c) true))))) ; MELTDOWN_028_variant_mitigation_composition

; MELTDOWN_029_complete_decomposition (matches Coq: Theorem MELTDOWN_029_complete_decomposition)
(assert (forall ((c MeltdownDefenseConfig)) (=> (= (meltdown_fully_protected c) true) (and (= (mdc_us_protected c) true) (= (mdc_p_protected c) true) (= (mdc_rw_protected c) true) (= (mdc_pk_protected c) true) (= (mdc_br_protected c) true) (= (mdc_kpti_enabled c) true) (= (mdc_l1tf_mitigated c) true))))) ; MELTDOWN_029_complete_decomposition

; Verify all assertions are satisfiable
(check-sat)
(exit)
